************************************************************************
file with basedata            : j60_36.bas
initial value random generator: 311224031
************************************************************************
projects                      :  1
jobs (incl. supersource/sink ):  62
horizon                       :  326
RESOURCES
  - renewable                 :  4   R
  - nonrenewable              :  0   N
  - doubly constrained        :  0   D
************************************************************************
PROJECT INFORMATION:
pronr.  #jobs rel.date duedate tardcost  MPM-Time
    1     60      0       70       13       70
************************************************************************
PRECEDENCE RELATIONS:
jobnr.    #modes  #successors   successors
   1        1          3           2   3   4
   2        1          3           6   7  22
   3        1          3           9  20  27
   4        1          3           5  12  18
   5        1          3           9  23  30
   6        1          2           8   9
   7        1          3          13  14  17
   8        1          3          10  11  44
   9        1          2          15  26
  10        1          2          32  34
  11        1          2          29  53
  12        1          2          16  33
  13        1          3          19  33  55
  14        1          1          51
  15        1          2          35  50
  16        1          3          24  28  31
  17        1          2          40  45
  18        1          1          37
  19        1          1          20
  20        1          2          21  36
  21        1          3          35  43  52
  22        1          3          32  33  45
  23        1          1          25
  24        1          3          29  42  46
  25        1          2          46  49
  26        1          2          42  44
  27        1          2          34  43
  28        1          1          29
  29        1          1          48
  30        1          2          32  57
  31        1          2          39  42
  32        1          1          58
  33        1          3          34  35  40
  34        1          1          41
  35        1          3          41  58  60
  36        1          2          49  57
  37        1          1          38
  38        1          2          48  49
  39        1          2          43  47
  40        1          2          41  52
  41        1          1          56
  42        1          1          45
  43        1          1          46
  44        1          3          47  56  58
  45        1          1          50
  46        1          3          48  51  59
  47        1          1          61
  48        1          2          54  61
  49        1          2          52  60
  50        1          1          51
  51        1          1          53
  52        1          1          56
  53        1          1          54
  54        1          1          57
  55        1          1          59
  56        1          1          61
  57        1          1          60
  58        1          1          59
  59        1          1          62
  60        1          1          62
  61        1          1          62
  62        1          0        
************************************************************************
REQUESTS/DURATIONS:
jobnr. mode duration  R 1  R 2  R 3  R 4
------------------------------------------------------------------------
  1      1     0       0    0    0    0
  2      1     7       0    7    0    0
  3      1     9      10    0    0    0
  4      1     1       7    0    0    0
  5      1     6       7    0    0    0
  6      1     4       0    0    0    9
  7      1     6       0    0    0    1
  8      1     7       3    0    0    0
  9      1    10       0    0    0    4
 10      1     5       5    0    0    0
 11      1     3       0    0    0    7
 12      1     4       0    0    9    0
 13      1     4       0    0    0    9
 14      1     4       3    0    0    0
 15      1     3       0    0    7    0
 16      1    10       0    0    2    0
 17      1     6       0    0    4    0
 18      1     8       0    8    0    0
 19      1     8       0    0    0    2
 20      1     8       8    0    0    0
 21      1     5       0    0    0    1
 22      1     9       5    0    0    0
 23      1     9       2    0    0    0
 24      1     7       0    0    5    0
 25      1    10       0    0    0   10
 26      1     2       0    6    0    0
 27      1    10       0    6    0    0
 28      1     2       0    7    0    0
 29      1     1       0    8    0    0
 30      1    10       0    2    0    0
 31      1     2       0    0    3    0
 32      1     3       0    0    5    0
 33      1     5       0    6    0    0
 34      1     8       0    5    0    0
 35      1     9       0    0    0    4
 36      1     9       0    0    0    2
 37      1     3       0    6    0    0
 38      1     8       5    0    0    0
 39      1     6       0    0    0    4
 40      1     1       0    7    0    0
 41      1     3       0    0    7    0
 42      1     3       0    0    0    9
 43      1     2       0    8    0    0
 44      1     1       0    3    0    0
 45      1     7       3    0    0    0
 46      1     3       0    0    0    2
 47      1     4       5    0    0    0
 48      1     8       0    0    0    3
 49      1     6       0    1    0    0
 50      1     9       0    6    0    0
 51      1     6       0    8    0    0
 52      1     7       1    0    0    0
 53      1     1       0    0    3    0
 54      1     2       0    0    0    8
 55      1     6       0    0    0    4
 56      1     5       0    0    5    0
 57      1     1       0    0    0    4
 58      1     2       4    0    0    0
 59      1     3       0    0    5    0
 60      1     5       0    6    0    0
 61      1    10       0    9    0    0
 62      1     0       0    0    0    0
************************************************************************
RESOURCEAVAILABILITIES:
  R 1  R 2  R 3  R 4
   18   21   15   31
************************************************************************
Job	#risk	Type	VL	mu	sigma	Type	VL	mu	sigma
4	1	7	0.1	8.75	0.875
6	2	5	0.2	6.25	1.25	7	0.2	8.75	1.75
9	1	2	0.2	2.5	0.5
10	1	3	0.1	3.75	0.375
13	1	2	0.1	2.5	0.25
16	2	7	0.1	8.75	0.875	8	0.05	10	0.5
19	2	5	0.05	6.25	0.3125	6	0.05	7.5	0.375
22	1	3	0.2	3.75	0.75
24	2	1	0.1	1.25	0.125	6	0.05	7.5	0.375
25	1	2	0.2	2.5	0.5
27	2	1	0.2	1.25	0.25	5	0.05	6.25	0.3125
33	2	2	0.05	2.5	0.125	6	0.05	7.5	0.375
34	1	7	0.2	8.75	1.75
37	2	3	0.2	3.75	0.75	6	0.2	7.5	1.5
46	1	5	0.1	6.25	0.625
49	1	8	0.05	10	0.5
50	1	1	0.05	1.25	0.0625
59	1	6	0.2	7.5	1.5
